0 0 0 0
0 1 0 0
0 2 0 0
0 3 0 0
0 4 2 5
0 5 1 5
0 6 0 3
0 7 2 2
0 8 1 12
0 9 0 5
0 10 0 12
0 11 0 12
0 12 0 2
0 13 0 13
0 14 0 12
0 15 1 2
0 16 0 13
0 17 0 7
0 18 0 11
0 19 0 12
0 20 0 16
0 21 0 16
0 22 0 18
0 23 0 16
0 24 2 21
0 25 0 22
0 26 2 18
0 27 2 12
0 28 2 21
0 29 2 22
0 30 0 27
0 31 0 31
